c --- [ banner ] -------------------------------------------------------------
c 
c CaDiCaL Radically Simplified CDCL SAT Solver
c Copyright (c) 2016-2021 A. Biere, M. Fleury, N. Froleyks
c 
c Version 1.5.2 a5f15211db36c3956764e18194dd5bd63bf3b5e6
c g++ (GCC) 9.3.0 -Wall -Wextra -O3 -DNDEBUG
c Fri Oct 21 01:27:37 EDT 2022 Linux gra-login3 3.10.0-1160.66.1.el7.x86_64 x86_64
c 
c --- [ limit ] --------------------------------------------------------------
c 
c setting conflict limit to 200000 conflicts (due to '200000')
c 
c --- [ parsing input ] ------------------------------------------------------
c 
c reading DIMACS file from '33.cubes2364.adj'
c opening file to read '33.cubes2364.adj'
c found 'p cnf 6160 1595470' header
c parsed 1595470 clauses in 18.90 seconds process time
c closing file '33.cubes2364.adj'
c after reading 1457566741 bytes 1390.0 MB
c 
c --- [ options ] ------------------------------------------------------------
c 
c all options are set to their default value
c 
c --- [ solving ] ------------------------------------------------------------
c 
c time measured in process time since initialization
c 
c  seconds    reductions  redundant   irredundant
c          MB     restarts       trail       variables
c            level   conflicts       glue         remaining
c 
c * 18.90 1381  0 0   0    0    0  0% 0 1595422 2437 40%
c { 20.35 1439  0 0   0    0    0  0% 0 1595422 2437 40%
c i 23.38 1496 506 0   9   67   60 30% 12 1595422 2436 40%
c i 23.54 1496 453 0  10   76   68 30% 20 1595422 2435 40%
c i 23.66 1500 443 0  11   78   69 30% 20 1595422 2434 40%
c i 23.78 1500 397 0  13   91   79 30% 24 1595422 2433 39%
c i 24.20 1503 351 0  17  111   95 30% 32 1595422 2432 39%
c i 24.83 1508 307 0  22  130  111 29% 28 1595422 2431 39%
c i 25.53 1509 258 0  31  169  146 29% 36 1595422 2430 39%
c i 25.86 1512 237 0  35  204  174 27% 34 1595422 2422 39%
c i 26.43 1512 217 0  41  243  211 27% 36 1595422 2378 39%
c i 26.87 1514 194 0  52  284  249 28% 37 1595422 2377 39%
c - 30.70 1490 185 1  53  302  266 28% 37 275209 2377 39%
c i 30.82 1395 184 1  53  304  267 28% 37 275209 2376 39%
c i 30.87 1395 183 1  53  309  271 28% 36 275209 2375 39%
c i 30.91 1395 182 1  53  314  275 28% 36 275209 2374 39%
c i 31.06 1395 175 1  55  340  298 28% 37 275209 2373 39%
c i 31.26 1395 160 1  58  393  342 28% 37 275209 2372 39%
c i 31.26 1395 159 1  58  398  346 28% 37 275209 2371 38%
c i 31.27 1395 157 1  58  405  352 28% 38 275209 2370 38%
c 
c  seconds     reductions  redundant   irredundant
c          MB      restarts       trail       variables
c             level   conflicts       glue         remaining
c 
c i 31.27 1395 156 1  58  406  352 28% 37 275209 2369 38%
c i 31.27 1395 156 1  58  407  352 28% 37 275209 2368 38%
c i 31.28 1395 153 1  58  420  363 28% 37 275209 2367 38%
c i 31.67 1395 111 1  61  678  580 28% 36 275209 2366 38%
c i 31.84 1395 102 1  61  806  693 28% 35 275209 2365 38%
c i 31.93 1395 97 1  64  879  749 28% 35 275209 2364 38%
c i 32.02 1395 97 1  66  905  772 28% 36 275209 2363 38%
c i 32.04 1395 97 1  67  910  776 28% 36 275209 2362 38%
c i 32.12 1395 97 1  69  916  780 28% 36 275209 2361 38%
c i 32.12 1395 97 1  70  919  782 28% 36 275209 2360 38%
c i 32.13 1395 97 1  70  923  785 28% 36 275209 2359 38%
c i 32.16 1395 96 1  70  925  786 28% 36 275209 2358 38%
c i 32.19 1395 96 1  70  937  795 28% 35 275209 2357 38%
c i 32.21 1395 95 1  70  949  806 28% 35 275209 2356 38%
c } 32.35 1395 92 1  70 1000  850 28% 35 275209 2356 38%
c [ 32.35 1395  0 1  70 1000  850  0% 0 275209 2356 38%
c O 32.36 1395 20 1  70 1002  852 21% 8 275209 2356 38%
c i 32.37 1395 11 1  70 1004  853 17% 4 275209 2345 38%
c i 32.37 1395  9 1  70 1005  853 16% 4 275209 2330 38%
c i 32.49 1395 15 1  70 1024  865 21% 9 275209 2329 38%
c 
c  seconds    reductions  redundant   irredundant
c          MB     restarts       trail       variables
c            level   conflicts       glue         remaining
c 
c i 32.51 1395 29 1  70 1038  878 25% 21 275209 2328 38%
c i 32.53 1395 32 1  70 1054  892 26% 25 275209 2327 38%
c i 32.53 1395 32 1  70 1056  892 26% 24 275209 2326 38%
c i 32.54 1395 33 1  70 1065  899 27% 25 275209 2325 38%
c i 32.56 1395 39 1  70 1123  944 28% 30 275209 2324 38%
c - 33.11 1511 37 2  70 1166  849 29% 29 274652 2324 38%
c i 33.20 1511 36 2  70 1190  871 29% 28 274652 2323 38%
c ] 33.23 1511 33 2  70 1254  926 29% 26 274652 2323 38%
c 1 33.23 1511 33 2  70 1254  926 29% 26 274652 2323 38%
c 
c --- [ writing output ] -----------------------------------------------------
c 
c writing simplified CNF to DIMACS file 'simp/33.cubes2364.adj.simp1'
c * 33.23 1511 33 2  70 1254  926 29% 26 274652 2323 38%
c opening file to write 'simp/33.cubes2364.adj.simp1'
c writing 'p cnf 6160 274650' header
c closing file 'simp/33.cubes2364.adj.simp1'
c after writing 134562931 bytes 128.3 MB
c wrote 274650 clauses in 1.02 seconds process time
c 
c --- [ writing extension ] --------------------------------------------------
c 
c writing extension stack to 'simp/33.cubes2364.adj.ext1'
c opening file to write 'simp/33.cubes2364.adj.ext1'
c closing file 'simp/33.cubes2364.adj.ext1'
c after writing 10160 bytes 0.0 MB
c wrote 693 witnesses in 0.00 seconds process time
c 
c --- [ result ] -------------------------------------------------------------
c 
s SATISFIABLE
c 
c --- [ run-time profiling ] -------------------------------------------------
c 
c process time taken by individual solving procedures
c (percentage relative to process time for solving)
c 
c        18.90  131.90% parse
c        14.33  100.00% search
c        12.01   83.81% unstable
c         1.44   10.08% lucky
c         0.87    6.11% stable
c         0.00    0.00% simplify
c   =================================
c        14.33   41.83% solve
c 
c last line shows process time for solving
c (percentage relative to total process time)
c 
c --- [ statistics ] ---------------------------------------------------------
c 
c chronological:               451        35.96 %  of conflicts
c conflicts:                  1254        87.52    per second
c decisions:                 15279      1066.41    per second
c fixed:                       693        11.25 %  of all variables
c learned:                    1209        96.41 %  per conflict
c learned_lits:             194520       100.00 %  learned literals
c minimized:                     0         0.00 %  learned literals
c shrunken:                  97384        50.06 %  learned literals
c minishrunken:              17785         9.14 %  learned literals
c propagations:             236670         0.02 M  per second
c reduced:                     124         9.89 %  per conflict
c rephased:                      1      1254.00    interval
c restarts:                     70        17.91    interval
c stabilizing:                   1        20.26 %  of conflicts
c subsumed:                    113         0.00 %  of all clauses
c 
c seconds are measured in process time for solving
c 
c --- [ resources ] ----------------------------------------------------------
c 
c total process time since initialization:        34.25    seconds
c total real time since initialization:           34.76    seconds
c maximum resident set size of process:         1514.29    MB
c 
c --- [ shutting down ] ------------------------------------------------------
c 
c exit 10
WARNING! DIMACS header mismatch: wrong number of variables.
============================[ Problem Statistics ]=============================
|                                                                             |
|  Number of variables:          6117                                         |
|  Number of clauses:          274650                                         |
|  Parse time:                   1.77 s                                       |
|  Simplification time:          0.03 s                                       |
|                                                                             |
============================[ Search Statistics ]====================================================
| Conflicts |          ORIGINAL         |          LEARNT          | Num Sols |      SUBGRAPHS      |
|           |    Vars  Clauses Literals |    Limit  Clauses Lit/Cl |          | Canonical Noncanon. |
=====================================================================================================
|       210 |    6026   274760 29026354 |     2000      210     34 |        0 |        88       110 |
|       703 |    6025   275103 29031864 |     2000      702     22 |        0 |       190       453 |
|      1442 |    6023   275617 29038910 |     2000     1439     24 |        0 |       368       967 |
|      2029 |    6017   275867 29043598 |     3598     1027     15 |        0 |       488      1217 |
|      2576 |    6010   275908 29044618 |     3598     1567     52 |        0 |       511      1258 |
|      3373 |    6003   275946 29045403 |     3598     2357     75 |        0 |       535      1296 |
|      6048 |    5997   277482 29071906 |     4993     3239     26 |        0 |       846      2832 |
|      9838 |    5994   279564 29107242 |     6304     4542     32 |        0 |      1129      4914 |
|     14023 |    5985   281187 29134745 |     7553     5574     39 |        0 |      1422      6537 |
|     18975 |    5985   282295 29156257 |     8781     6756     42 |        0 |      1655      7645 |
|     29799 |    5981   287353 29234969 |    11200     8198     49 |        0 |      2214     12703 |
|     38903 |    5978   287808 29245529 |    12406    11709     71 |        0 |      2334     13158 |
|     54980 |    5978   290911 29309085 |    14811    14791     65 |        0 |      2737     16261 |
|     76977 |    5978   293447 29350489 |    18411    12788     55 |        0 |      3119     18797 |
|    109177 |    5978   296455 29400114 |    22015    15592     49 |        0 |      3699     21805 |
|    155933 |    5977   299422 29447435 |    26813    14746     39 |        0 |      4228     24772 |
|    226410 |    5975   304215 29509449 |    31626    28036     70 |        0 |      4743     29565 |
|    330762 |    5975   251940 23737580 |    38821    28583     71 |        0 |      5564     35391 |
|    480486 |    5975   253875 23774885 |    47220    29906     60 |        0 |      6260     37326 |
|    718394 |    5975   270100 24006641 |    58022    33816     49 |        0 |      8273     53551 |
|   1060424 |    5975   279605 24176607 |    70027    58851     68 |        0 |     10402     63056 |
|   1582051 |    5975   302444 24536033 |    85617    78668     73 |        0 |     13783     85895 |
|   2351599 |    5957   213652 19323263 |   104808    91407     81 |        0 |     18092    107261 |
=====================================================================================================
Number of solutions   : 2
Canonical subgraphs   : 22307          (13 /sec)
          order  3    : 1              (142857 /sec)
          order  4    : 1              (500000 /sec)
          order  5    : 1              (250000 /sec)
          order  6    : 1              (55556 /sec)
          order  7    : 1              (8850 /sec)
          order  8    : 2              (1366 /sec)
          order  9    : 7              (354 /sec)
          order 10    : 28             (103 /sec)
          order 11    : 111            (31 /sec)
          order 12    : 623            (15 /sec)
          order 13    : 3810           (16 /sec)
          order 14    : 2311           (23 /sec)
          order 15    : 3321           (14 /sec)
          order 16    : 7698           (10 /sec)
          order 17    : 3443           (11 /sec)
          order 18    : 470            (9 /sec)
          order 19    : 257            (9 /sec)
          order 20    : 107            (11 /sec)
          order 21    : 112            (10 /sec)
          order 22    : 2              (1 /sec)
Noncanonical subgraphs: 126740         (483 /sec)
          order  3    : 0              (-nan /sec)
          order  4    : 0              (-nan /sec)
          order  5    : 0              (-nan /sec)
          order  6    : 0              (-nan /sec)
          order  7    : 0              (-nan /sec)
          order  8    : 0              (-nan /sec)
          order  9    : 0              (-nan /sec)
          order 10    : 0              (-nan /sec)
          order 11    : 0              (-nan /sec)
          order 12    : 0              (-nan /sec)
          order 13    : 8012           (6171 /sec)
          order 14    : 71169          (762 /sec)
          order 15    : 18728          (999 /sec)
          order 16    : 19216          (619 /sec)
          order 17    : 9266           (90 /sec)
          order 18    : 227            (68 /sec)
          order 19    : 5              (350 /sec)
          order 20    : 0              (-nan /sec)
          order 21    : 1              (39 /sec)
Canonicity checking   : 1775.32 s
Noncanonicity checking: 262.461 s
Total canonicity time : 2037.78 s
database reductions   : 105
restarts              : 6142
conflicts             : 3488026        (942 /sec)
decisions             : 4365665        (0.00 % random) (1180 /sec)
propagations          : 402028281      (108631 /sec)
conflict literals     : 414055277      (54.58 % deleted)
actual reward         : 0.110138
Memory used           : 385.00 MB
CPU time              : 3700.87 s

UNSATISFIABLE
